6252
6307
6185
6282
6226
6286
6302
6286
6190
6333
6348
6088
6290
6331
6319
6269
6291
6232
6370
6319
6226
6275
6111
6216
6304
6196
6311
6239
6245
6343
6208
6294
6248
6348
6208
6281
6235
6245
6322
6238
6283
6226
6335
6283
6304
6268
6271
6282
6279
6306
6244
6345
6237
6254
6240
6333
6238
6253
6316
6199
6318
6261
6203
6322
6276
6215
6252
6296
6291
6269
6307
6306
6294
6316
6253
6334
6289
6251
6304
6296
6356
6311
6327
6290
6340
6228
6308
6245
6249
6267
6301
6216
6281
6309
6226
6345
6352
6169
6226
6231
